c This is QMaxSAT 2017 based on 14.07
c This is Glucose 3.0
c This is MiniSat 2.2.0
c WARNING: for repeatability, setting FPU to use double precision
c card = mrwto, comp = 0, pmodel = 0, narr = 26, mct = 76, verb = 0
cr firstCPXsol 0 0 0
c top = 189219
c |  Number of variables:    20402                                            |
c |  Number of clauses:      1692427                                          |
c |  Weight of hard clauses: 189219                                           |
c |  Number of soft clauses: 245700                                           |
c |  Number of unit soft clauses: 0                                           |
c |  Maximum Cardinality (by unit): 7995468      (0           )               |
c last restart ## conflicts  :  0 5912 
o 670 | cpuTime 1.10636 s
c Sum of weights = 307518
c A number of soft clauses remained = 9450
c MRWTO encoding for Pseudo-Boolean Constraints
c sizeMax=670
c No.0 Divisor=9	generated by pow1
c No.1 Divisor=9	generated by pow1
c No.2 Divisor=9	generated by pow1
c p0= 9	p1= 9	p2= 9	
c number of digits = 4
c linkingVar[0].size = 9, linkingVar[1].size = 9, linkingVar[2].size = 9, linkingVar[3].size = 1, 
c Pseudo-Boolean Constraints: 163562 variables and 1210338 clauses
c Sum of weights = 307518
c A number of soft clauses remained = 9450
c MRWTO encoding for Pseudo-Boolean Constraints
c sizeMax=670
c No.0 Divisor=9	generated by pow1
c No.1 Divisor=9	generated by pow1
c No.2 Divisor=9	generated by pow1
c p0= 9	p1= 9	p2= 9	
c number of digits = 4
c linkingVar[0].size = 9, linkingVar[1].size = 9, linkingVar[2].size = 9, linkingVar[3].size = 1, 
c Pseudo-Boolean Constraints: 163562 variables and 1210338 clauses
c Sum of weights = 307518
c A number of soft clauses remained = 9450
c MRWTO encoding for Pseudo-Boolean Constraints
c sizeMax=670
c No.0 Divisor=9	generated by pow1
c No.1 Divisor=9	generated by pow1
c No.2 Divisor=9	generated by pow1
c p0= 9	p1= 9	p2= 9	
c number of digits = 4
c linkingVar[0].size = 9, linkingVar[1].size = 9, linkingVar[2].size = 9, linkingVar[3].size = 1, 
c Pseudo-Boolean Constraints: 163562 variables and 1210338 clauses
c Sum of weights = 307518
c A number of soft clauses remained = 9450
c MRWTO encoding for Pseudo-Boolean Constraints
c sizeMax=670
c No.0 Divisor=9	generated by pow1
c No.1 Divisor=9	generated by pow1
c No.2 Divisor=9	generated by pow1
c p0= 9	p1= 9	p2= 9	
c number of digits = 4
c linkingVar[0].size = 9, linkingVar[1].size = 9, linkingVar[2].size = 9, linkingVar[3].size = 1, 
c Pseudo-Boolean Constraints: 163562 variables and 1210338 clauses
c Sum of weights = 307518
c A number of soft clauses remained = 9450
c MRWTO encoding for Pseudo-Boolean Constraints
c sizeMax=670
c No.0 Divisor=9	generated by pow1
c No.1 Divisor=9	generated by pow1
c No.2 Divisor=9	generated by pow1
c p0= 9	p1= 9	p2= 9	
c number of digits = 4
c linkingVar[0].size = 9, linkingVar[1].size = 9, linkingVar[2].size = 9, linkingVar[3].size = 1, 
c Pseudo-Boolean Constraints: 163562 variables and 1210338 clauses
c Sum of weights = 307518
c A number of soft clauses remained = 9450
c MRWTO encoding for Pseudo-Boolean Constraints
c sizeMax=670
c No.0 Divisor=9	generated by pow1
c No.1 Divisor=9	generated by pow1
c No.2 Divisor=9	generated by pow1
c p0= 9	p1= 9	p2= 9	
c number of digits = 4
c linkingVar[0].size = 9, linkingVar[1].size = 9, linkingVar[2].size = 9, linkingVar[3].size = 1, 
c Pseudo-Boolean Constraints: 163562 variables and 1210338 clauses
c Sum of weights = 307518
c A number of soft clauses remained = 9450
c MRWTO encoding for Pseudo-Boolean Constraints
c sizeMax=670
c No.0 Divisor=9	generated by pow1
c No.1 Divisor=9	generated by pow1
c No.2 Divisor=9	generated by pow1
c p0= 9	p1= 9	p2= 9	
c number of digits = 4
c linkingVar[0].size = 9, linkingVar[1].size = 9, linkingVar[2].size = 9, linkingVar[3].size = 1, 
c Pseudo-Boolean Constraints: 163562 variables and 1210338 clauses
c Sum of weights = 307518
c A number of soft clauses remained = 9450
c MRWTO encoding for Pseudo-Boolean Constraints
c sizeMax=670
c No.0 Divisor=9	generated by pow1
c No.1 Divisor=9	generated by pow1
c No.2 Divisor=9	generated by pow1
c p0= 9	p1= 9	p2= 9	
c number of digits = 4
c linkingVar[0].size = 9, linkingVar[1].size = 9, linkingVar[2].size = 9, linkingVar[3].size = 1, 
c Pseudo-Boolean Constraints: 163562 variables and 1210338 clauses
c Sum of weights = 307518
c A number of soft clauses remained = 9450
c MRWTO encoding for Pseudo-Boolean Constraints
c sizeMax=670
c No.0 Divisor=9	generated by pow1
c No.1 Divisor=9	generated by pow1
c No.2 Divisor=9	generated by pow1
c p0= 9	p1= 9	p2= 9	
c number of digits = 4
c linkingVar[0].size = 9, linkingVar[1].size = 9, linkingVar[2].size = 9, linkingVar[3].size = 1, 
c Pseudo-Boolean Constraints: 163562 variables and 1210338 clauses
c Sum of weights = 307518
c A number of soft clauses remained = 9450
c MRWTO encoding for Pseudo-Boolean Constraints
c sizeMax=670
c No.0 Divisor=9	generated by pow1
c No.1 Divisor=9	generated by pow1
c No.2 Divisor=9	generated by pow1
c p0= 9	p1= 9	p2= 9	
c number of digits = 4
c linkingVar[0].size = 9, linkingVar[1].size = 9, linkingVar[2].size = 9, linkingVar[3].size = 1, 
c Pseudo-Boolean Constraints: 163562 variables and 1210338 clauses
c Sum of weights = 307518
c A number of soft clauses remained = 9450
c MRWTO encoding for Pseudo-Boolean Constraints
c sizeMax=670
c No.0 Divisor=9	generated by pow1
c No.1 Divisor=9	generated by pow1
c No.2 Divisor=9	generated by pow1
c p0= 9	p1= 9	p2= 9	
c number of digits = 4
c linkingVar[0].size = 9, linkingVar[1].size = 9, linkingVar[2].size = 9, linkingVar[3].size = 1, 
c Pseudo-Boolean Constraints: 163562 variables and 1210338 clauses
c Sum of weights = 307518
c A number of soft clauses remained = 9450
c MRWTO encoding for Pseudo-Boolean Constraints
c sizeMax=670
c No.0 Divisor=9	generated by pow1
c No.1 Divisor=9	generated by pow1
c No.2 Divisor=9	generated by pow1
c p0= 9	p1= 9	p2= 9	
c number of digits = 4
c linkingVar[0].size = 9, linkingVar[1].size = 9, linkingVar[2].size = 9, linkingVar[3].size = 1, 
c Pseudo-Boolean Constraints: 163562 variables and 1210338 clauses
c Sum of weights = 307518
c A number of soft clauses remained = 9450
c MRWTO encoding for Pseudo-Boolean Constraints
c sizeMax=670
c No.0 Divisor=9	generated by pow1
c No.1 Divisor=9	generated by pow1
c No.2 Divisor=9	generated by pow1
c p0= 9	p1= 9	p2= 9	
c number of digits = 4
c linkingVar[0].size = 9, linkingVar[1].size = 9, linkingVar[2].size = 9, linkingVar[3].size = 1, 
c Pseudo-Boolean Constraints: 163562 variables and 1210338 clauses
c Sum of weights = 307518
c A number of soft clauses remained = 9450
c MRWTO encoding for Pseudo-Boolean Constraints
c sizeMax=670
c No.0 Divisor=9	generated by pow1
c No.1 Divisor=9	generated by pow1
c No.2 Divisor=9	generated by pow1
c p0= 9	p1= 9	p2= 9	
c number of digits = 4
c linkingVar[0].size = 9, linkingVar[1].size = 9, linkingVar[2].size = 9, linkingVar[3].size = 1, 
c Pseudo-Boolean Constraints: 163562 variables and 1210338 clauses
c Sum of weights = 307518
c A number of soft clauses remained = 9450
c MRWTO encoding for Pseudo-Boolean Constraints
c sizeMax=670
c No.0 Divisor=9	generated by pow1
c No.1 Divisor=9	generated by pow1
c No.2 Divisor=9	generated by pow1
c p0= 9	p1= 9	p2= 9	
c number of digits = 4
c linkingVar[0].size = 9, linkingVar[1].size = 9, linkingVar[2].size = 9, linkingVar[3].size = 1, 
c Pseudo-Boolean Constraints: 163562 variables and 1210338 clauses
c Sum of weights = 307518
c A number of soft clauses remained = 9450
c MRWTO encoding for Pseudo-Boolean Constraints
c sizeMax=670
c No.0 Divisor=9	generated by pow1
c No.1 Divisor=9	generated by pow1
c No.2 Divisor=9	generated by pow1
c p0= 9	p1= 9	p2= 9	
c number of digits = 4
c linkingVar[0].size = 9, linkingVar[1].size = 9, linkingVar[2].size = 9, linkingVar[3].size = 1, 
c Pseudo-Boolean Constraints: 163562 variables and 1210338 clauses
c Sum of weights = 307518
c A number of soft clauses remained = 9450
c MRWTO encoding for Pseudo-Boolean Constraints
c sizeMax=670
c No.0 Divisor=9	generated by pow1
c No.1 Divisor=9	generated by pow1
c No.2 Divisor=9	generated by pow1
c p0= 9	p1= 9	p2= 9	
c number of digits = 4
c linkingVar[0].size = 9, linkingVar[1].size = 9, linkingVar[2].size = 9, linkingVar[3].size = 1, 
c Pseudo-Boolean Constraints: 163562 variables and 1210338 clauses
c Sum of weights = 307518
c A number of soft clauses remained = 9450
c MRWTO encoding for Pseudo-Boolean Constraints
c sizeMax=670
c No.0 Divisor=9	generated by pow1
c No.1 Divisor=9	generated by pow1
c No.2 Divisor=9	generated by pow1
c p0= 9	p1= 9	p2= 9	
c number of digits = 4
c linkingVar[0].size = 9, linkingVar[1].size = 9, linkingVar[2].size = 9, linkingVar[3].size = 1, 
c Pseudo-Boolean Constraints: 163562 variables and 1210338 clauses
c Sum of weights = 307518
c A number of soft clauses remained = 9450
c MRWTO encoding for Pseudo-Boolean Constraints
c sizeMax=670
c No.0 Divisor=9	generated by pow1
c No.1 Divisor=9	generated by pow1
c No.2 Divisor=9	generated by pow1
c p0= 9	p1= 9	p2= 9	
c number of digits = 4
c linkingVar[0].size = 9, linkingVar[1].size = 9, linkingVar[2].size = 9, linkingVar[3].size = 1, 
c Pseudo-Boolean Constraints: 163562 variables and 1210338 clauses
c Sum of weights = 307518
c A number of soft clauses remained = 9450
c MRWTO encoding for Pseudo-Boolean Constraints
c sizeMax=670
c No.0 Divisor=9	generated by pow1
c No.1 Divisor=9	generated by pow1
c No.2 Divisor=9	generated by pow1
c p0= 9	p1= 9	p2= 9	
c number of digits = 4
c linkingVar[0].size = 9, linkingVar[1].size = 9, linkingVar[2].size = 9, linkingVar[3].size = 1, 
c Pseudo-Boolean Constraints: 163562 variables and 1210338 clauses
c Sum of weights = 307518
c A number of soft clauses remained = 9450
c MRWTO encoding for Pseudo-Boolean Constraints
c sizeMax=670
c No.0 Divisor=9	generated by pow1
c No.1 Divisor=9	generated by pow1
c No.2 Divisor=9	generated by pow1
c p0= 9	p1= 9	p2= 9	
c number of digits = 4
c linkingVar[0].size = 9, linkingVar[1].size = 9, linkingVar[2].size = 9, linkingVar[3].size = 1, 
c Pseudo-Boolean Constraints: 163562 variables and 1210338 clauses
c Sum of weights = 307518
c A number of soft clauses remained = 9450
c MRWTO encoding for Pseudo-Boolean Constraints
c sizeMax=670
c No.0 Divisor=9	generated by pow1
c No.1 Divisor=9	generated by pow1
c No.2 Divisor=9	generated by pow1
c p0= 9	p1= 9	p2= 9	
c number of digits = 4
c linkingVar[0].size = 9, linkingVar[1].size = 9, linkingVar[2].size = 9, linkingVar[3].size = 1, 
c Pseudo-Boolean Constraints: 163562 variables and 1210338 clauses
c Sum of weights = 307518
c A number of soft clauses remained = 9450
c MRWTO encoding for Pseudo-Boolean Constraints
c sizeMax=670
c No.0 Divisor=9	generated by pow1
c No.1 Divisor=9	generated by pow1
c No.2 Divisor=9	generated by pow1
c p0= 9	p1= 9	p2= 9	
c number of digits = 4
c linkingVar[0].size = 9, linkingVar[1].size = 9, linkingVar[2].size = 9, linkingVar[3].size = 1, 
c Pseudo-Boolean Constraints: 163562 variables and 1210338 clauses
c Sum of weights = 307518
c A number of soft clauses remained = 9450
c MRWTO encoding for Pseudo-Boolean Constraints
c sizeMax=670
c No.0 Divisor=9	generated by pow1
c No.1 Divisor=9	generated by pow1
c No.2 Divisor=9	generated by pow1
c p0= 9	p1= 9	p2= 9	
c number of digits = 4
c linkingVar[0].size = 9, linkingVar[1].size = 9, linkingVar[2].size = 9, linkingVar[3].size = 1, 
c Pseudo-Boolean Constraints: 163562 variables and 1210338 clauses
c Sum of weights = 307518
c A number of soft clauses remained = 9450
c MRWTO encoding for Pseudo-Boolean Constraints
c sizeMax=670
c No.0 Divisor=9	generated by pow1
c No.1 Divisor=9	generated by pow1
c No.2 Divisor=9	generated by pow1
c p0= 9	p1= 9	p2= 9	
c number of digits = 4
c linkingVar[0].size = 9, linkingVar[1].size = 9, linkingVar[2].size = 9, linkingVar[3].size = 1, 
c Pseudo-Boolean Constraints: 163562 variables and 1210338 clauses
c Sum of weights = 307518
c A number of soft clauses remained = 9450
c MRWTO encoding for Pseudo-Boolean Constraints
c sizeMax=670
c No.0 Divisor=9	generated by pow1
c No.1 Divisor=9	generated by pow1
c No.2 Divisor=9	generated by pow1
c p0= 9	p1= 9	p2= 9	
c number of digits = 4
c linkingVar[0].size = 9, linkingVar[1].size = 9, linkingVar[2].size = 9, linkingVar[3].size = 1, 
c Pseudo-Boolean Constraints: 163562 variables and 1210338 clauses
c last restart ## conflicts  :  628 70831 
o 416 | cpuTime 31.5119 s
c last restart ## conflicts  :  624 70908 
o 344 | cpuTime 50.8495 s
c last restart ## conflicts  :  361 52579 
o 249 | cpuTime 70.234 s
c last restart ## conflicts  :  499 67056 
o 217 | cpuTime 157.426 s
c last restart ## conflicts  :  571 52598 
o 210 | cpuTime 249.449 s
c last restart ## conflicts  :  423 93777 
o 207 | cpuTime 456.81 s
c last restart ## conflicts  :  398 35909 
o 204 | cpuTime 1092.74 s
c last restart ## conflicts  :  288 55521 
o 197 | cpuTime 1274.17 s
c last restart ## conflicts  :  293 20704 
o 188 | cpuTime 1713.17 s
c last restart ## conflicts  :  479 56686 
o 182 | cpuTime 3557.79 s
s UNKNOWN
c Search is stopped by a limit (maybe time-limit)
cr positiVarArr: [ | 68(1->43) | 196(1->70) | 232(1->5) | 330(1->2) | 458(1->29) | 568(1->38) | 700(1->69) | 793(1->61) | 898(1->65) | 982(1->48) | 1106(1->71) | 1151(1->15) | 1311(1->74) | 1397(1->59) | 1489(1->50) | 1598(1->58) | 1686(1->45) | 1760(1->18) | 1864(1->21) | 1999(1->55) | 2065(1->20) | 2206(1->60) | 2296(1->49) | 2400(1->52) | 2522(1->73) | 2556(1->6) | 2644(2->1) | 2768(3->16) | 2854(4->1) | 2984(5->30) | 3045(6->1) | 3164(7->8) | 3310(8->53) | 3390(9->32) | 3490(10->31) | 3574(11->14) | 3685(12->24) | 3799(13->37) | 3873(14->10) | 3958(15->1) | 4098(16->33) | 4234(17->68) | 4293(18->26) | 4425(19->57) | 4503(20->34) | 4621(21->51) | 4735(22->64) | 4813(23->41) | 4896(24->23) | 4955(25->1) | 5053(26->1) | 5195(27->19) | 5290(28->13) | 5413(29->35) | 5533(30->54) | 5620(31->40) | 5737(32->56) | 5761(33->1) | 5874(34->1) | 5991(35->7) | 6073(36->1) | 6213(37->27) | 6350(38->63) | 6397(39->9) | 6465(40->1) | 6576(41->1) | 6753(42->62) | 6867(43->75) | 6896(44->3) | 7066(45->72) | 7107(46->12) | 7176(47->1) | 7295(48->1) | 7395(49->1) | 7486(50->1) | 7617(51->17) | 7705(52->4) | 7868(53->66) | 7949(54->46) | 8040(55->36) | 8082(56->1) | 8253(57->47) | 8289(58->1) | 8404(59->1) | 8534(60->25) | 8632(61->22) | 8700(62->1) | 8795(63->1) | 8897(64->1) | 9025(65->11) | 9114(66->1) | 9216(67->1) | 9384(68->67) | 9410(69->1) | 9504(70->1) | 9659(71->39) | 9716(72->1) | 9864(73->42) | 9951(74->28) | 10100(75->76) | 10169(76->44) | ]
cr the 1-th chain: [ 1->43->75->76->44->3->16->33->1 ] (#non-depot=7) {#cumul.=8}
cr the 2-th chain: [ 1->70->1 ] (#non-depot=1) {#cumul.=9}
cr the 3-th chain: [ 1->5->30->54->46->12->24->23->41->1 ] (#non-depot=8) {#cumul.=17}
cr the 4-th chain: [ 1->2->1 ] (#non-depot=1) {#cumul.=18}
cr the 5-th chain: [ 1->29->35->7->8->53->66->1 ] (#non-depot=6) {#cumul.=24}
cr the 6-th chain: [ 1->38->63->1 ] (#non-depot=2) {#cumul.=26}
cr the 7-th chain: [ 1->69->1 ] (#non-depot=1) {#cumul.=27}
cr the 8-th chain: [ 1->61->22->64->1 ] (#non-depot=3) {#cumul.=30}
cr the 9-th chain: [ 1->65->11->14->10->31->40->1 ] (#non-depot=6) {#cumul.=36}
cr the 10-th chain: [ 1->48->1 ] (#non-depot=1) {#cumul.=37}
cr the 11-th chain: [ 1->71->39->9->32->56->1 ] (#non-depot=5) {#cumul.=42}
cr the 12-th chain: [ 1->15->1 ] (#non-depot=1) {#cumul.=43}
cr the 13-th chain: [ 1->74->28->13->37->27->19->57->47->1 ] (#non-depot=8) {#cumul.=51}
cr the 14-th chain: [ 1->59->1 ] (#non-depot=1) {#cumul.=52}
cr the 15-th chain: [ 1->50->1 ] (#non-depot=1) {#cumul.=53}
cr the 16-th chain: [ 1->58->1 ] (#non-depot=1) {#cumul.=54}
cr the 17-th chain: [ 1->45->72->1 ] (#non-depot=2) {#cumul.=56}
cr the 18-th chain: [ 1->18->26->1 ] (#non-depot=2) {#cumul.=58}
cr the 19-th chain: [ 1->21->51->17->68->67->1 ] (#non-depot=5) {#cumul.=63}
cr the 20-th chain: [ 1->55->36->1 ] (#non-depot=2) {#cumul.=65}
cr the 21-th chain: [ 1->20->34->1 ] (#non-depot=2) {#cumul.=67}
cr the 22-th chain: [ 1->60->25->1 ] (#non-depot=2) {#cumul.=69}
cr the 23-th chain: [ 1->49->1 ] (#non-depot=1) {#cumul.=70}
cr the 24-th chain: [ 1->52->4->1 ] (#non-depot=2) {#cumul.=72}
cr the 25-th chain: [ 1->73->42->62->1 ] (#non-depot=3) {#cumul.=75}
cr the 26-th chain: [ 1->6->1 ] (#non-depot=1) {#cumul.=76}
c Latest Answer = 0 by 11 loops
c restarts              : 17200
c conflicts             : 2654157        (737 /sec)
c decisions             : 176082562      (0.00 % random) (48919 /sec)
c propagations          : 35782868789    (9941167 /sec)
c conflict literals     : 458168899      (27.28 % deleted)
c Memory used           : 3917.00 MB
c CPU time              : 3599.46 s
